(set-info :smt-lib-version 2.6)
(set-logic QF_S)
(set-info :source |
Generated by: Hung-En Wang, Tzung-Lin Tsai, Chun-Han Lin, Fang Yu, and Jie-Hong R. Jiang
Generated on: 2019-02-28
Generator: Stranger
Application: Security analysis of string manipulating web applications
Target solver: CVC4, Norn, Z3-str2
Publication:
Hung-En Wang, Tzung-Lin Tsai, Chun-Han Lin, Fang Yu, Jie-Hong R. Jiang:
String Analysis via Automata Manipulation with Logic Circuit Representation. CAV (1) 2016: 241-260.
|)
(set-info :license "https://creativecommons.org/licenses/by/4.0/")
(set-info :category "industrial")
(set-info :status unknown)

(declare-fun sigmaStar_0 () String)
(declare-fun sigmaStar_1 () String)
(declare-fun sigmaStar_2 () String)
(declare-fun sigmaStar_15 () String)
(declare-fun literal_19 () String)
(declare-fun x_21 () String)
(declare-fun literal_16 () String)
(declare-fun literal_17 () String)
(declare-fun x_22 () String)
(declare-fun literal_24 () String)
(declare-fun x_26 () String)
(declare-fun literal_5 () String)
(declare-fun x_28 () String)
(declare-fun literal_30 () String)
(declare-fun x_32 () String)
(declare-fun literal_33 () String)
(declare-fun x_34 () String)
(assert (= literal_19 "\u{26}\u{6e}\u{62}\u{73}\u{70}\u{3b}\u{3c}\u{61}\u{20}\u{74}\u{61}\u{72}\u{67}\u{65}\u{74}\u{3d}\u{5c}\u{22}\u{75}\u{70}\u{6c}\u{6f}\u{61}\u{64}\u{65}\u{64}\u{66}\u{69}\u{6c}\u{65}\u{5c}\u{22}\u{20}\u{68}\u{72}\u{65}\u{66}\u{3d}\u{5c}\u{22}\u{2f}"))
(assert (= literal_16 "\u{66}\u{69}\u{6c}\u{65}\u{2e}\u{70}\u{68}\u{70}\u{3f}\u{66}\u{69}\u{6c}\u{65}\u{3d}\u{2f}\u{2f}\u{2f}\u{77}\u{6f}\u{72}\u{6b}\u{73}\u{68}\u{6f}\u{70}\u{2f}\u{2f}\u{2f}\u{2f}\u{77}\u{6f}\u{72}\u{6b}\u{73}\u{68}\u{6f}\u{70}\u{2f}"))
(assert (= literal_17 "\u{66}\u{69}\u{6c}\u{65}\u{2e}\u{70}\u{68}\u{70}\u{2f}\u{2f}\u{2f}\u{77}\u{6f}\u{72}\u{6b}\u{73}\u{68}\u{6f}\u{70}\u{2f}\u{2f}\u{2f}\u{2f}\u{77}\u{6f}\u{72}\u{6b}\u{73}\u{68}\u{6f}\u{70}\u{2f}"))
(assert (or (= x_21 literal_16) (= x_21 literal_17)))
(assert (= x_22 (str.++ literal_19 x_21)))
(assert (= literal_24 "\u{5c}\u{22}\u{3e}"))
(assert (= x_26 (str.++ x_22 literal_24)))
(assert (= literal_5 "\u{2f}\u{2f}\u{77}\u{6f}\u{72}\u{6b}\u{73}\u{68}\u{6f}\u{70}\u{2f}"))
(assert (= x_28 (str.++ x_26 literal_5)))
(assert (= literal_30 "\u{3c}\u{2f}\u{61}\u{3e}\u{3c}\u{2f}\u{74}\u{64}\u{3e}\u{3c}\u{2f}\u{74}\u{72}\u{3e}"))
(assert (= x_32 (str.++ x_28 literal_30)))
(assert (= literal_33 "\u{3c}\u{69}\u{6d}\u{67}\u{20}\u{73}\u{72}\u{63}\u{3d}\u{5c}\u{22}\u{2f}\u{66}\u{2f}\u{69}\u{63}\u{6f}\u{6e}\u{5c}\u{22}\u{20}\u{68}\u{65}\u{69}\u{67}\u{68}\u{74}\u{3d}\u{5c}\u{22}\u{31}\u{36}\u{5c}\u{22}\u{20}\u{77}\u{69}\u{64}\u{74}\u{68}\u{3d}\u{5c}\u{22}\u{31}\u{36}\u{5c}\u{22}\u{20}\u{0d}\u{0a}\u{20}\u{20}\u{20}\u{20}\u{20}\u{20}\u{20}\u{20}\u{20}\u{20}\u{20}\u{20}\u{20}\u{20}\u{20}\u{20}\u{20}\u{20}\u{20}\u{20}\u{20}\u{20}\u{20}\u{20}\u{62}\u{6f}\u{72}\u{64}\u{65}\u{72}\u{3d}\u{5c}\u{22}\u{30}\u{5c}\u{22}\u{20}\u{61}\u{6c}\u{74}\u{3d}\u{5c}\u{22}\u{46}\u{69}\u{6c}\u{65}\u{5c}\u{22}\u{20}\u{2f}\u{3e}"))
(assert (= x_34 (str.++ literal_33 x_32)))
(assert (str.in_re x_34 (re.++ (re.* re.allchar) (re.++ (str.to_re "\u{5c}\u{3c}\u{53}\u{43}\u{52}\u{49}\u{50}\u{54}") (re.* re.allchar)))))
(check-sat)
(exit)
